8752
2, 30, 29, 20, 50, 23, 31, 1, 22, 49, 32, 36, 39, 40, 24, 48, 25, 4, 6, 5, 15, 38, 37, 35, 34, 44, 46, 16, 27, 28, 26, 47, 14, 13, 52, 11, 51, 12, 33, 43, 10, 9, 8, 19, 41, 45, 3, 18, 17, 21, 42, 7
